p cnf 37 28
c p distribution  0.875 0.125
c p distribution  0.875 0.125
c p distribution  0.875 0.125
c p distribution  0.875 0.125
c p distribution  0.875 0.125
c p distribution  0.875 0.125
c p distribution  0.875 0.125
c p distribution  0.875 0.125
c p distribution  0.875 0.125
c p distribution  0.875 0.125
c p distribution  0.875 0.125
c p distribution  0.875 0.125
c p distribution  0.875 0.125
33 0
-27 0
31 -28 -1 0
28 -31 -1 0
31 -37 -3 0
37 -31 -3 0
36 -27 -5 0
27 -36 -5 0
31 -30 -7 0
30 -31 -7 0
36 -31 -9 0
31 -36 -9 0
36 -37 -11 0
37 -36 -11 0
34 -37 -13 0
37 -34 -13 0
36 -29 -15 0
29 -36 -15 0
34 -30 -17 0
30 -34 -17 0
36 -32 -19 0
32 -36 -19 0
31 -35 -21 0
35 -31 -21 0
29 -35 -23 0
35 -29 -23 0
29 -33 -25 0
33 -29 -25 0

